solution status: optimal solution found
objective value:                              2904500
L$A#1                                              12 	(obj:3700)
L$A#2                                               4 	(obj:3700)
L$A#3                                              12 	(obj:3700)
L$A#5                                               6 	(obj:3700)
L$A#6                                              12 	(obj:3700)
L$A#7                                              12 	(obj:3700)
L$A#8                                              12 	(obj:3700)
L$A#9                                              12 	(obj:3700)
L$A#10                                              8 	(obj:3700)
L$A#11                                             12 	(obj:3700)
L$A#12                                             12 	(obj:3700)
L$A#17                                             12 	(obj:3700)
L$A#18                                             12 	(obj:3700)
L$A#19                                             12 	(obj:3700)
L$A#20                                             12 	(obj:3700)
L$A#21                                             12 	(obj:3700)
L$A#22                                             11 	(obj:3700)
L$B#1                                              12 	(obj:3700)
L$B#2                                              12 	(obj:3700)
L$B#3                                              12 	(obj:3700)
L$B#4                                              12 	(obj:3700)
L$B#5                                              12 	(obj:3700)
L$B#6                                              12 	(obj:3700)
L$B#7                                              12 	(obj:3700)
L$B#8                                              12 	(obj:3700)
L$B#9                                              12 	(obj:3700)
L$B#11                                              5 	(obj:3700)
L$B#12                                              8 	(obj:3700)
L$B#13                                             12 	(obj:3700)
L$B#15                                             12 	(obj:3700)
L$B#16                                             11 	(obj:3700)
L$B#17                                             12 	(obj:3700)
L$B#18                                             12 	(obj:3700)
L$B#19                                             12 	(obj:3700)
L$B#20                                             12 	(obj:3700)
L$B#21                                             12 	(obj:3700)
L$B#22                                             12 	(obj:3700)
L$C#1                                               8 	(obj:3700)
L$C#5                                               2 	(obj:3700)
L$C#6                                              12 	(obj:3700)
L$C#7                                               4 	(obj:3700)
L$C#8                                              12 	(obj:3700)
L$C#9                                              12 	(obj:3700)
L$C#15                                              8 	(obj:3700)
L$C#18                                              3 	(obj:3700)
L$C#19                                             12 	(obj:3700)
L$C#20                                             12 	(obj:3700)
L$C#21                                              8 	(obj:3700)
L$D#1                                               4 	(obj:3700)
L$D#2                                              12 	(obj:3700)
L$D#6                                               4 	(obj:3700)
L$D#7                                              12 	(obj:3700)
L$D#8                                              12 	(obj:3700)
L$D#9                                              12 	(obj:3700)
L$D#10                                              2 	(obj:3700)
L$D#13                                              7 	(obj:3700)
L$D#17                                              4 	(obj:3700)
L$D#18                                              7 	(obj:3700)
L$D#19                                             12 	(obj:3700)
L$D#20                                             12 	(obj:3700)
L$D#21                                             12 	(obj:3700)
L$D#22                                              2 	(obj:3700)
L$E#1                                              12 	(obj:3700)
L$E#2                                               8 	(obj:3700)
L$E#3                                              12 	(obj:3700)
L$E#5                                               9 	(obj:3700)
L$E#6                                              12 	(obj:3700)
L$E#7                                              12 	(obj:3700)
L$E#8                                              12 	(obj:3700)
L$E#9                                              12 	(obj:3700)
L$E#10                                             12 	(obj:3700)
L$E#11                                             12 	(obj:3700)
L$E#12                                              6 	(obj:3700)
L$E#16                                              8 	(obj:3700)
L$E#17                                             12 	(obj:3700)
L$E#18                                             12 	(obj:3700)
L$E#19                                             12 	(obj:3700)
L$E#20                                              2 	(obj:3700)
S$A#1                                             100 	(obj:0)
S$A#2                                             115 	(obj:0)
S$A#3                                             205 	(obj:0)
S$A#4                                             165 	(obj:0)
S$A#5                                             165 	(obj:0)
S$A#6                                             185 	(obj:0)
S$A#7                                             125 	(obj:0)
S$A#8                                              35 	(obj:0)
S$A#9                                               5 	(obj:0)
S$A#10                                             25 	(obj:0)
S$A#11                                            115 	(obj:0)
S$A#12                                            215 	(obj:0)
S$A#13                                            195 	(obj:0)
S$A#14                                            170 	(obj:0)
S$A#15                                            140 	(obj:0)
S$A#16                                            100 	(obj:0)
S$A#17                                            160 	(obj:0)
S$A#18                                            180 	(obj:0)
S$A#19                                            120 	(obj:0)
S$A#20                                             30 	(obj:0)
S$A#22                                             50 	(obj:0)
S$A#23                                             20 	(obj:0)
S$B#1                                              90 	(obj:0)
S$B#2                                             170 	(obj:0)
S$B#3                                             250 	(obj:0)
S$B#4                                             325 	(obj:0)
S$B#5                                             355 	(obj:0)
S$B#6                                             335 	(obj:0)
S$B#7                                             245 	(obj:0)
S$B#8                                             115 	(obj:0)
S$B#9                                              65 	(obj:0)
S$B#10                                              5 	(obj:0)
S$B#11                                             15 	(obj:0)
S$B#12                                             70 	(obj:0)
S$B#13                                            160 	(obj:0)
S$B#14                                            120 	(obj:0)
S$B#15                                            200 	(obj:0)
S$B#16                                            265 	(obj:0)
S$B#17                                            295 	(obj:0)
S$B#18                                            275 	(obj:0)
S$B#19                                            185 	(obj:0)
S$B#20                                             55 	(obj:0)
S$B#21                                              5 	(obj:0)
S$B#22                                             65 	(obj:0)
S$B#23                                             25 	(obj:0)
S$C#1                                              70 	(obj:0)
S$C#2                                              55 	(obj:0)
S$C#3                                              40 	(obj:0)
S$C#4                                              20 	(obj:0)
S$C#5                                              10 	(obj:0)
S$C#6                                              80 	(obj:0)
S$C#7                                              30 	(obj:0)
S$C#8                                              45 	(obj:0)
S$C#9                                              90 	(obj:0)
S$C#10                                             60 	(obj:0)
S$C#11                                             45 	(obj:0)
S$C#12                                             35 	(obj:0)
S$C#13                                             25 	(obj:0)
S$C#14                                             10 	(obj:0)
S$C#15                                             75 	(obj:0)
S$C#16                                             55 	(obj:0)
S$C#17                                             25 	(obj:0)
S$C#18                                              5 	(obj:0)
S$C#19                                             35 	(obj:0)
S$C#20                                             50 	(obj:0)
S$C#21                                             55 	(obj:0)
S$C#22                                             25 	(obj:0)
S$C#23                                             10 	(obj:0)
S$D#1                                              25 	(obj:0)
S$D#2                                             125 	(obj:0)
S$D#3                                             105 	(obj:0)
S$D#4                                              85 	(obj:0)
S$D#5                                              40 	(obj:0)
S$D#6                                              10 	(obj:0)
S$D#7                                              25 	(obj:0)
S$D#8                                              20 	(obj:0)
S$D#9                                              55 	(obj:0)
S$D#10                                             45 	(obj:0)
S$D#11                                             25 	(obj:0)
S$D#12                                             10 	(obj:0)
S$D#13                                             65 	(obj:0)
S$D#14                                             45 	(obj:0)
S$D#15                                             25 	(obj:0)
S$D#16                                              5 	(obj:0)
S$D#19                                             15 	(obj:0)
S$D#20                                             10 	(obj:0)
S$D#21                                             45 	(obj:0)
S$D#22                                             35 	(obj:0)
S$D#23                                             15 	(obj:0)
S$E#1                                             105 	(obj:0)
S$E#2                                             170 	(obj:0)
S$E#3                                             270 	(obj:0)
S$E#4                                             245 	(obj:0)
S$E#5                                             265 	(obj:0)
S$E#6                                             285 	(obj:0)
S$E#7                                             255 	(obj:0)
S$E#8                                             215 	(obj:0)
S$E#9                                             195 	(obj:0)
S$E#10                                            245 	(obj:0)
S$E#11                                            325 	(obj:0)
S$E#12                                            365 	(obj:0)
S$E#13                                            350 	(obj:0)
S$E#14                                            335 	(obj:0)
S$E#15                                            315 	(obj:0)
S$E#16                                            370 	(obj:0)
S$E#17                                            420 	(obj:0)
S$E#18                                            440 	(obj:0)
S$E#19                                            410 	(obj:0)
S$E#20                                            270 	(obj:0)
S$E#21                                            130 	(obj:0)
S$E#22                                             60 	(obj:0)
S$E#23                                             20 	(obj:0)
